certificates/rado_a13_c177_N43.cnf
c Rad2 upper bound instance: x1 + 13*x2 - x3 = 177, interval [1,43]
p cnf 43 282
1 6 14 0
-1 -6 -14 0
1 15 19 0
-1 -15 -19 0
1 16 32 0
-1 -16 -32 0
2 7 14 0
-2 -7 -14 0
2 15 20 0
-2 -15 -20 0
2 16 33 0
-2 -16 -33 0
3 8 14 0
-3 -8 -14 0
3 15 21 0
-3 -15 -21 0
3 16 34 0
-3 -16 -34 0
4 9 14 0
-4 -9 -14 0
4 15 22 0
-4 -15 -22 0
4 16 35 0
-4 -16 -35 0
5 10 14 0
-5 -10 -14 0
5 15 23 0
-5 -15 -23 0
5 16 36 0
-5 -16 -36 0
6 11 14 0
-6 -11 -14 0
6 15 24 0
-6 -15 -24 0
6 16 37 0
-6 -16 -37 0
7 12 14 0
-7 -12 -14 0
7 15 25 0
-7 -15 -25 0
7 16 38 0
-7 -16 -38 0
8 13 14 0
-8 -13 -14 0
8 15 26 0
-8 -15 -26 0
8 16 39 0
-8 -16 -39 0
1 9 13 0
-1 -9 -13 0
9 14 0
-9 -14 0
9 15 27 0
-9 -15 -27 0
9 16 40 0
-9 -16 -40 0
2 10 13 0
-2 -10 -13 0
10 14 15 0
-10 -14 -15 0
10 15 28 0
-10 -15 -28 0
10 16 41 0
-10 -16 -41 0
3 11 13 0
-3 -11 -13 0
11 14 16 0
-11 -14 -16 0
11 15 29 0
-11 -15 -29 0
11 16 42 0
-11 -16 -42 0
4 12 13 0
-4 -12 -13 0
12 14 17 0
-12 -14 -17 0
12 15 30 0
-12 -15 -30 0
12 16 43 0
-12 -16 -43 0
5 13 0
-5 -13 0
13 14 18 0
-13 -14 -18 0
13 15 31 0
-13 -15 -31 0
6 13 14 0
-6 -13 -14 0
14 19 0
-14 -19 0
14 15 32 0
-14 -15 -32 0
7 13 15 0
-7 -13 -15 0
14 15 20 0
-14 -15 -20 0
15 33 0
-15 -33 0
8 13 16 0
-8 -13 -16 0
14 16 21 0
-14 -16 -21 0
15 16 34 0
-15 -16 -34 0
9 13 17 0
-9 -13 -17 0
14 17 22 0
-14 -17 -22 0
15 17 35 0
-15 -17 -35 0
10 13 18 0
-10 -13 -18 0
14 18 23 0
-14 -18 -23 0
15 18 36 0
-15 -18 -36 0
11 13 19 0
-11 -13 -19 0
14 19 24 0
-14 -19 -24 0
15 19 37 0
-15 -19 -37 0
12 13 20 0
-12 -13 -20 0
14 20 25 0
-14 -20 -25 0
15 20 38 0
-15 -20 -38 0
13 21 0
-13 -21 0
14 21 26 0
-14 -21 -26 0
15 21 39 0
-15 -21 -39 0
1 12 22 0
-1 -12 -22 0
13 14 22 0
-13 -14 -22 0
14 22 27 0
-14 -22 -27 0
15 22 40 0
-15 -22 -40 0
2 12 23 0
-2 -12 -23 0
13 15 23 0
-13 -15 -23 0
14 23 28 0
-14 -23 -28 0
15 23 41 0
-15 -23 -41 0
3 12 24 0
-3 -12 -24 0
13 16 24 0
-13 -16 -24 0
14 24 29 0
-14 -24 -29 0
15 24 42 0
-15 -24 -42 0
4 12 25 0
-4 -12 -25 0
13 17 25 0
-13 -17 -25 0
14 25 30 0
-14 -25 -30 0
15 25 43 0
-15 -25 -43 0
5 12 26 0
-5 -12 -26 0
13 18 26 0
-13 -18 -26 0
14 26 31 0
-14 -26 -31 0
6 12 27 0
-6 -12 -27 0
13 19 27 0
-13 -19 -27 0
14 27 32 0
-14 -27 -32 0
7 12 28 0
-7 -12 -28 0
13 20 28 0
-13 -20 -28 0
14 28 33 0
-14 -28 -33 0
8 12 29 0
-8 -12 -29 0
13 21 29 0
-13 -21 -29 0
14 29 34 0
-14 -29 -34 0
9 12 30 0
-9 -12 -30 0
13 22 30 0
-13 -22 -30 0
14 30 35 0
-14 -30 -35 0
10 12 31 0
-10 -12 -31 0
13 23 31 0
-13 -23 -31 0
14 31 36 0
-14 -31 -36 0
11 12 32 0
-11 -12 -32 0
13 24 32 0
-13 -24 -32 0
14 32 37 0
-14 -32 -37 0
12 33 0
-12 -33 0
13 25 33 0
-13 -25 -33 0
14 33 38 0
-14 -33 -38 0
12 13 34 0
-12 -13 -34 0
13 26 34 0
-13 -26 -34 0
14 34 39 0
-14 -34 -39 0
1 11 35 0
-1 -11 -35 0
12 14 35 0
-12 -14 -35 0
13 27 35 0
-13 -27 -35 0
14 35 40 0
-14 -35 -40 0
2 11 36 0
-2 -11 -36 0
12 15 36 0
-12 -15 -36 0
13 28 36 0
-13 -28 -36 0
14 36 41 0
-14 -36 -41 0
3 11 37 0
-3 -11 -37 0
12 16 37 0
-12 -16 -37 0
13 29 37 0
-13 -29 -37 0
14 37 42 0
-14 -37 -42 0
4 11 38 0
-4 -11 -38 0
12 17 38 0
-12 -17 -38 0
13 30 38 0
-13 -30 -38 0
14 38 43 0
-14 -38 -43 0
5 11 39 0
-5 -11 -39 0
12 18 39 0
-12 -18 -39 0
13 31 39 0
-13 -31 -39 0
6 11 40 0
-6 -11 -40 0
12 19 40 0
-12 -19 -40 0
13 32 40 0
-13 -32 -40 0
7 11 41 0
-7 -11 -41 0
12 20 41 0
-12 -20 -41 0
13 33 41 0
-13 -33 -41 0
8 11 42 0
-8 -11 -42 0
12 21 42 0
-12 -21 -42 0
13 34 42 0
-13 -34 -42 0
9 11 43 0
-9 -11 -43 0
12 22 43 0
-12 -22 -43 0
13 35 43 0
-13 -35 -43 0
