certificates/rado_a13_c177_N43.drat
14 -40 -43 0
-14 -42 -43 0
14 -43 0
d 14 -40 -43 0
40 -43 0
-16 -43 0
-14 -43 0
d -14 -38 -43 0
-43 0
16 0
14 -12 0
-14 0
9 0
19 0
38 0
-12 0
-40 0
-7 0
0
